42581
202,198,192,191,193,194,196,195,183,182,179,181,180,178,174,176,177,189,175,173,171,135,170,169,164,165,172,166,162,161,160,158,159,163,168,134,136,133,132,126,122,125,167,117,116,115,114,101,113,112,100,95,96,97,98,102,156,88,94,93,92,87,85,84,83,86,89,157,91,90,81,82,80,79,78,77,76,75,74,68,67,66,65,62,63,64,73,72,71,70,69,51,52,55,54,57,58,59,61,60,56,53,34,35,36,43,44,42,45,47,49,48,50,99,111,110,109,108,107,106,46,41,103,105,104,119,121,120,124,123,118,40,38,39,130,131,129,128,127,37,33,32,31,30,16,3,1,2,5,4,8,6,7,9,10,17,18,11,12,13,14,15,19,21,20,26,27,28,29,137,138,139,140,141,185,184,186,187,188,190,151,150,149,148,147,145,144,143,142,24,23,22,25,146,154,155,153,152,197,199,200,201,202
